n = 100;
C = 503;
w = [57,486,754,455,994,915,165,232,846,892,233,355,351,557,858,574,689,146,493,616,181,334,320,294,306,583,888,727,439,904,553,712,906,397,242,673,612,211,310,78,282,733,109,31,589,280,425,664,675,248,241,66,917,153,673,97,799,279,848,364,35,910,336,679,237,866,690,852,232,1000,63,566,312,620,712,436,815,408,735,780,337,580,604,94,431,216,257,317,783,316,894,969,402,393,958,304,381,949,352,704];
p = [102,91,78,119,992,891,574,584,294,249,734,242,954,207,341,851,302,291,221,26,119,358,814,898,644,149,313,27,843,243,590,17,373,653,671,315,573,972,474,21,324,7,323,415,928,39,800,652,529,113,451,20,114,31,372,58,294,135,28,470,632,882,643,508,546,359,66,235,295,46,730,872,609,293,99,88,636,510,126,633,689,527,892,890,924,744,412,998,46,761,617,997,876,642,969,443,14,201,408,512];
